(set-info :smt-lib-version 2.6)
(set-logic QF_BV)
(set-info :source |
 Patrice Godefroid, SAGE (systematic dynamic test generation)
 For more information: http://research.microsoft.com/en-us/um/people/pg/public_psfiles/ndss2008.pdf
|)
(set-info :category "industrial")
(set-info :status sat)
(declare-fun T4_10594 () (_ BitVec 32))
(declare-fun T4_2350 () (_ BitVec 32))
(declare-fun T4_10616 () (_ BitVec 32))
(declare-fun T4_10679 () (_ BitVec 32))
(declare-fun T2_10602 () (_ BitVec 16))
(declare-fun T2_2358 () (_ BitVec 16))
(declare-fun T4_10746 () (_ BitVec 32))
(declare-fun T4_11167 () (_ BitVec 32))
(declare-fun T4_10542 () (_ BitVec 32))
(declare-fun T4_10420 () (_ BitVec 32))
(declare-fun T4_11131 () (_ BitVec 32))
(declare-fun T4_10485 () (_ BitVec 32))
(declare-fun T4_11070 () (_ BitVec 32))
(declare-fun T4_11007 () (_ BitVec 32))
(declare-fun T4_10941 () (_ BitVec 32))
(declare-fun T4_10877 () (_ BitVec 32))
(declare-fun T4_10814 () (_ BitVec 32))
(declare-fun T2_10410 () (_ BitVec 16))
(declare-fun T2_10408 () (_ BitVec 16))
(declare-fun T2_10475 () (_ BitVec 16))
(declare-fun T2_10473 () (_ BitVec 16))
(declare-fun T2_10532 () (_ BitVec 16))
(declare-fun T2_10530 () (_ BitVec 16))
(declare-fun T2_10606 () (_ BitVec 16))
(declare-fun T2_10604 () (_ BitVec 16))
(declare-fun T2_10669 () (_ BitVec 16))
(declare-fun T2_10667 () (_ BitVec 16))
(declare-fun T2_10736 () (_ BitVec 16))
(declare-fun T2_10734 () (_ BitVec 16))
(declare-fun T2_10804 () (_ BitVec 16))
(declare-fun T2_10802 () (_ BitVec 16))
(declare-fun T2_10867 () (_ BitVec 16))
(declare-fun T2_10865 () (_ BitVec 16))
(declare-fun T2_10931 () (_ BitVec 16))
(declare-fun T2_10929 () (_ BitVec 16))
(declare-fun T2_10997 () (_ BitVec 16))
(declare-fun T2_10995 () (_ BitVec 16))
(declare-fun T2_11060 () (_ BitVec 16))
(declare-fun T2_11058 () (_ BitVec 16))
(declare-fun T2_11121 () (_ BitVec 16))
(declare-fun T2_11119 () (_ BitVec 16))
(declare-fun T4_11163 () (_ BitVec 32))
(declare-fun T4_10463 () (_ BitVec 32))
(declare-fun T2_968 () (_ BitVec 16))
(declare-fun T2_10471 () (_ BitVec 16))
(declare-fun T4_10398 () (_ BitVec 32))
(declare-fun T2_28 () (_ BitVec 16))
(declare-fun T2_10406 () (_ BitVec 16))
(declare-fun T2_26 () (_ BitVec 16))
(declare-fun T2_51 () (_ BitVec 16))
(declare-fun T4_18 () (_ BitVec 32))
(declare-fun T4_958 () (_ BitVec 32))
(declare-fun T1_18 () (_ BitVec 8))
(declare-fun T1_19 () (_ BitVec 8))
(declare-fun T1_20 () (_ BitVec 8))
(declare-fun T2_983 () (_ BitVec 16))
(declare-fun T2_966 () (_ BitVec 16))
(declare-fun T1_11167 () (_ BitVec 8))
(declare-fun T1_11168 () (_ BitVec 8))
(declare-fun T1_11169 () (_ BitVec 8))
(declare-fun T1_11170 () (_ BitVec 8))
(declare-fun T1_11163 () (_ BitVec 8))
(declare-fun T1_11164 () (_ BitVec 8))
(declare-fun T1_11165 () (_ BitVec 8))
(declare-fun T1_11166 () (_ BitVec 8))
(declare-fun T1_11131 () (_ BitVec 8))
(declare-fun T1_11132 () (_ BitVec 8))
(declare-fun T1_11133 () (_ BitVec 8))
(declare-fun T1_11134 () (_ BitVec 8))
(declare-fun T1_11121 () (_ BitVec 8))
(declare-fun T1_11122 () (_ BitVec 8))
(declare-fun T1_11119 () (_ BitVec 8))
(declare-fun T1_11120 () (_ BitVec 8))
(declare-fun T1_11070 () (_ BitVec 8))
(declare-fun T1_11071 () (_ BitVec 8))
(declare-fun T1_11072 () (_ BitVec 8))
(declare-fun T1_11073 () (_ BitVec 8))
(declare-fun T1_11060 () (_ BitVec 8))
(declare-fun T1_11061 () (_ BitVec 8))
(declare-fun T1_11058 () (_ BitVec 8))
(declare-fun T1_11059 () (_ BitVec 8))
(declare-fun T1_11007 () (_ BitVec 8))
(declare-fun T1_11008 () (_ BitVec 8))
(declare-fun T1_11009 () (_ BitVec 8))
(declare-fun T1_11010 () (_ BitVec 8))
(declare-fun T1_10997 () (_ BitVec 8))
(declare-fun T1_10998 () (_ BitVec 8))
(declare-fun T1_10995 () (_ BitVec 8))
(declare-fun T1_10996 () (_ BitVec 8))
(declare-fun T1_10941 () (_ BitVec 8))
(declare-fun T1_10942 () (_ BitVec 8))
(declare-fun T1_10943 () (_ BitVec 8))
(declare-fun T1_10944 () (_ BitVec 8))
(declare-fun T1_10931 () (_ BitVec 8))
(declare-fun T1_10932 () (_ BitVec 8))
(declare-fun T1_10929 () (_ BitVec 8))
(declare-fun T1_10930 () (_ BitVec 8))
(declare-fun T1_10877 () (_ BitVec 8))
(declare-fun T1_10878 () (_ BitVec 8))
(declare-fun T1_10879 () (_ BitVec 8))
(declare-fun T1_10880 () (_ BitVec 8))
(declare-fun T1_10867 () (_ BitVec 8))
(declare-fun T1_10868 () (_ BitVec 8))
(declare-fun T1_10865 () (_ BitVec 8))
(declare-fun T1_10866 () (_ BitVec 8))
(declare-fun T1_10814 () (_ BitVec 8))
(declare-fun T1_10815 () (_ BitVec 8))
(declare-fun T1_10816 () (_ BitVec 8))
(declare-fun T1_10817 () (_ BitVec 8))
(declare-fun T1_10804 () (_ BitVec 8))
(declare-fun T1_10805 () (_ BitVec 8))
(declare-fun T1_10802 () (_ BitVec 8))
(declare-fun T1_10803 () (_ BitVec 8))
(declare-fun T1_10746 () (_ BitVec 8))
(declare-fun T1_10747 () (_ BitVec 8))
(declare-fun T1_10748 () (_ BitVec 8))
(declare-fun T1_10749 () (_ BitVec 8))
(declare-fun T1_10736 () (_ BitVec 8))
(declare-fun T1_10737 () (_ BitVec 8))
(declare-fun T1_10734 () (_ BitVec 8))
(declare-fun T1_10735 () (_ BitVec 8))
(declare-fun T1_10679 () (_ BitVec 8))
(declare-fun T1_10680 () (_ BitVec 8))
(declare-fun T1_10681 () (_ BitVec 8))
(declare-fun T1_10682 () (_ BitVec 8))
(declare-fun T1_10669 () (_ BitVec 8))
(declare-fun T1_10670 () (_ BitVec 8))
(declare-fun T1_10667 () (_ BitVec 8))
(declare-fun T1_10668 () (_ BitVec 8))
(declare-fun T1_10616 () (_ BitVec 8))
(declare-fun T1_10617 () (_ BitVec 8))
(declare-fun T1_10618 () (_ BitVec 8))
(declare-fun T1_10619 () (_ BitVec 8))
(declare-fun T1_10606 () (_ BitVec 8))
(declare-fun T1_10607 () (_ BitVec 8))
(declare-fun T1_10604 () (_ BitVec 8))
(declare-fun T1_10605 () (_ BitVec 8))
(declare-fun T1_10602 () (_ BitVec 8))
(declare-fun T1_10603 () (_ BitVec 8))
(declare-fun T1_10594 () (_ BitVec 8))
(declare-fun T1_10595 () (_ BitVec 8))
(declare-fun T1_10596 () (_ BitVec 8))
(declare-fun T1_10597 () (_ BitVec 8))
(declare-fun T1_10542 () (_ BitVec 8))
(declare-fun T1_10543 () (_ BitVec 8))
(declare-fun T1_10544 () (_ BitVec 8))
(declare-fun T1_10545 () (_ BitVec 8))
(declare-fun T1_10532 () (_ BitVec 8))
(declare-fun T1_10533 () (_ BitVec 8))
(declare-fun T1_10530 () (_ BitVec 8))
(declare-fun T1_10531 () (_ BitVec 8))
(declare-fun T1_10485 () (_ BitVec 8))
(declare-fun T1_10486 () (_ BitVec 8))
(declare-fun T1_10487 () (_ BitVec 8))
(declare-fun T1_10488 () (_ BitVec 8))
(declare-fun T1_10475 () (_ BitVec 8))
(declare-fun T1_10476 () (_ BitVec 8))
(declare-fun T1_10473 () (_ BitVec 8))
(declare-fun T1_10474 () (_ BitVec 8))
(declare-fun T1_10471 () (_ BitVec 8))
(declare-fun T1_10472 () (_ BitVec 8))
(declare-fun T1_10463 () (_ BitVec 8))
(declare-fun T1_10464 () (_ BitVec 8))
(declare-fun T1_10465 () (_ BitVec 8))
(declare-fun T1_10466 () (_ BitVec 8))
(declare-fun T1_10420 () (_ BitVec 8))
(declare-fun T1_10421 () (_ BitVec 8))
(declare-fun T1_10422 () (_ BitVec 8))
(declare-fun T1_10423 () (_ BitVec 8))
(declare-fun T1_10410 () (_ BitVec 8))
(declare-fun T1_10411 () (_ BitVec 8))
(declare-fun T1_10408 () (_ BitVec 8))
(declare-fun T1_10409 () (_ BitVec 8))
(declare-fun T1_10406 () (_ BitVec 8))
(declare-fun T1_10407 () (_ BitVec 8))
(declare-fun T1_10398 () (_ BitVec 8))
(declare-fun T1_10399 () (_ BitVec 8))
(declare-fun T1_10400 () (_ BitVec 8))
(declare-fun T1_10401 () (_ BitVec 8))
(declare-fun T1_2358 () (_ BitVec 8))
(declare-fun T1_2359 () (_ BitVec 8))
(declare-fun T1_2350 () (_ BitVec 8))
(declare-fun T1_2351 () (_ BitVec 8))
(declare-fun T1_2352 () (_ BitVec 8))
(declare-fun T1_2353 () (_ BitVec 8))
(declare-fun T1_983 () (_ BitVec 8))
(declare-fun T1_984 () (_ BitVec 8))
(declare-fun T1_968 () (_ BitVec 8))
(declare-fun T1_969 () (_ BitVec 8))
(declare-fun T1_966 () (_ BitVec 8))
(declare-fun T1_967 () (_ BitVec 8))
(declare-fun T1_958 () (_ BitVec 8))
(declare-fun T1_959 () (_ BitVec 8))
(declare-fun T1_960 () (_ BitVec 8))
(declare-fun T1_961 () (_ BitVec 8))
(declare-fun T1_51 () (_ BitVec 8))
(declare-fun T1_52 () (_ BitVec 8))
(declare-fun T1_28 () (_ BitVec 8))
(declare-fun T1_29 () (_ BitVec 8))
(declare-fun T1_26 () (_ BitVec 8))
(declare-fun T1_27 () (_ BitVec 8))
(declare-fun T1_21 () (_ BitVec 8))
(assert (let ((?v_98 (bvsub T4_10679 T4_10616)) (?v_92 ((_ zero_extend 16) T2_10602))) (let ((?v_97 (bvadd ?v_92 (_ bv30 32))) (?v_75 ((_ zero_extend 24) (_ bv1 8)))) (let ((?v_96 (bvadd ?v_92 ?v_75)) (?v_95 (bvadd ?v_92 (_ bv1 32))) (?v_93 (bvadd ?v_92 (_ bv2 32)))) (let ((?v_94 (bvadd ?v_93 ?v_93)) (?v_0 (bvadd T4_11167 (_ bv4 32))) (?v_79 ((_ zero_extend 16) T2_10408))) (let ((?v_54 (bvadd ?v_0 (bvsub (bvadd (bvadd (bvadd ?v_0 (_ bv61 32)) ?v_79) ((_ zero_extend 16) T2_10410)) ?v_0)))) (let ((?v_1 (bvadd ?v_54 (_ bv4 32))) (?v_53 ((_ zero_extend 16) T2_10473))) (let ((?v_42 (bvadd ?v_1 (bvsub (bvadd (bvadd (bvadd ?v_1 (_ bv53 32)) ?v_53) ((_ zero_extend 16) T2_10475)) ?v_1)))) (let ((?v_2 (bvadd ?v_42 (_ bv4 32))) (?v_41 ((_ zero_extend 16) T2_10530))) (let ((?v_31 (bvadd ?v_2 (bvsub (bvadd (bvadd (bvadd ?v_2 (_ bv70 32)) ?v_41) ((_ zero_extend 16) T2_10532)) ?v_2)))) (let ((?v_3 (bvadd ?v_31 (_ bv4 32))) (?v_30 ((_ zero_extend 16) T2_10604))) (let ((?v_22 (bvadd ?v_3 (bvsub (bvadd (bvadd (bvadd ?v_3 (_ bv59 32)) ?v_30) ((_ zero_extend 16) T2_10606)) ?v_3)))) (let ((?v_4 (bvadd ?v_22 (_ bv4 32))) (?v_21 ((_ zero_extend 16) T2_10667))) (let ((?v_13 (bvadd ?v_4 (bvsub (bvadd (bvadd (bvadd ?v_4 (_ bv63 32)) ?v_21) ((_ zero_extend 16) T2_10669)) ?v_4)))) (let ((?v_5 (bvadd ?v_13 (_ bv4 32))) (?v_12 ((_ zero_extend 16) T2_10734))) (let ((?v_7 (bvadd ?v_5 (bvsub (bvadd (bvadd (bvadd ?v_5 (_ bv64 32)) ?v_12) ((_ zero_extend 16) T2_10736)) ?v_5)))) (let ((?v_10 (bvadd ?v_7 (_ bv4 32))) (?v_16 ((_ zero_extend 16) T2_10802))) (let ((?v_17 (bvadd ?v_10 (bvsub (bvadd (bvadd (bvadd ?v_10 (_ bv59 32)) ?v_16) ((_ zero_extend 16) T2_10804)) ?v_10)))) (let ((?v_20 (bvadd ?v_17 (_ bv4 32))) (?v_25 ((_ zero_extend 16) T2_10865))) (let ((?v_26 (bvadd ?v_20 (bvsub (bvadd (bvadd (bvadd ?v_20 (_ bv60 32)) ?v_25) ((_ zero_extend 16) T2_10867)) ?v_20)))) (let ((?v_29 (bvadd ?v_26 (_ bv4 32))) (?v_34 ((_ zero_extend 16) T2_10929))) (let ((?v_35 (bvadd ?v_29 (bvsub (bvadd (bvadd (bvadd ?v_29 (_ bv62 32)) ?v_34) ((_ zero_extend 16) T2_10931)) ?v_29)))) (let ((?v_40 (bvadd ?v_35 (_ bv4 32))) (?v_48 ((_ zero_extend 16) T2_10995))) (let ((?v_49 (bvadd ?v_40 (bvsub (bvadd (bvadd (bvadd ?v_40 (_ bv59 32)) ?v_48) ((_ zero_extend 16) T2_10997)) ?v_40)))) (let ((?v_52 (bvadd ?v_49 (_ bv4 32))) (?v_65 ((_ zero_extend 16) T2_11058))) (let ((?v_66 (bvadd ?v_52 (bvsub (bvadd (bvadd (bvadd ?v_52 (_ bv57 32)) ?v_65) ((_ zero_extend 16) T2_11060)) ?v_52)))) (let ((?v_77 (bvadd ?v_66 (_ bv4 32))) (?v_78 ((_ zero_extend 16) T2_11119))) (let ((?v_84 (bvadd ?v_77 (bvsub (bvadd (bvadd (bvadd ?v_77 (_ bv58 32)) ?v_78) ((_ zero_extend 16) T2_11121)) ?v_77)))) (let ((?v_90 (bvadd ?v_84 (_ bv0 32)))) (let ((?v_91 (bvsub ?v_90 T4_11167)) (?v_89 (bvsub T4_10542 T4_10485)) (?v_61 ((_ zero_extend 16) T2_968)) (?v_45 ((_ zero_extend 16) T2_10471))) (let ((?v_64 (bvadd ?v_45 (_ bv30 32))) (?v_88 (bvsub T4_10485 T4_10420)) (?v_81 ((_ zero_extend 16) T2_28)) (?v_74 ((_ zero_extend 16) T2_10406))) (let ((?v_86 (bvadd ?v_74 (_ bv30 32)))) (let ((?v_87 (bvadd ?v_86 ?v_81)) (?v_85 (bvadd ?v_0 (_ bv42 32))) (?v_83 (bvule (_ bv4 32) ?v_81)) (?v_82 (bvadd ((_ zero_extend 16) T2_51) (_ bv4 32))) (?v_80 (bvsub (_ bv4294967295 32) ((_ zero_extend 24) (ite (bvult (bvsub (_ bv4294967295 32) T4_11167) (_ bv0 32)) (_ bv1 8) (_ bv0 8))))) (?v_76 (bvadd ?v_74 ?v_75)) (?v_73 ((_ zero_extend 24) T1_18)) (?v_72 ((_ zero_extend 24) T1_19)) (?v_71 ((_ zero_extend 24) T1_20)) (?v_70 (bvsub T4_10398 (_ bv371 32))) (?v_69 (bvsub T4_10398 (_ bv370 32))) (?v_68 (bvsub (_ bv4294967295 32) ((_ zero_extend 24) (ite (bvult (bvsub (_ bv4294967295 32) ?v_0) (_ bv0 32)) (_ bv1 8) (_ bv0 8))))) (?v_67 (bvadd ?v_1 (_ bv42 32))) (?v_63 (bvule (_ bv4 32) ?v_61)) (?v_62 (bvadd ((_ zero_extend 16) T2_983) (_ bv4 32))) (?v_60 (bvsub T4_10463 (_ bv259 32))) (?v_59 (bvsub T4_10463 (_ bv258 32))) (?v_57 (bvadd ?v_74 (_ bv2 32)))) (let ((?v_58 (bvadd ?v_57 ?v_57)) (?v_56 (bvsub (_ bv4294967295 32) ((_ zero_extend 24) (ite (bvult (bvsub (_ bv4294967295 32) ?v_85) (_ bv0 32)) (_ bv1 8) (_ bv0 8))))) (?v_55 (bvsub (_ bv4294967295 32) ((_ zero_extend 24) (ite (bvult (bvsub (_ bv4294967295 32) ?v_54) (_ bv0 32)) (_ bv1 8) (_ bv0 8))))) (?v_51 (bvsub (_ bv4294967295 32) ((_ zero_extend 24) (ite (bvult (bvsub (_ bv4294967295 32) ?v_1) (_ bv0 32)) (_ bv1 8) (_ bv0 8))))) (?v_50 (bvadd ?v_2 (_ bv42 32))) (?v_47 (bvadd ?v_45 ?v_75)) (?v_46 (bvadd ?v_45 (_ bv1 32))) (?v_44 (bvsub (_ bv4294967295 32) ((_ zero_extend 24) (ite (bvult (bvsub (_ bv4294967295 32) ?v_67) (_ bv0 32)) (_ bv1 8) (_ bv0 8))))) (?v_43 (bvsub (_ bv4294967295 32) ((_ zero_extend 24) (ite (bvult (bvsub (_ bv4294967295 32) ?v_42) (_ bv0 32)) (_ bv1 8) (_ bv0 8))))) (?v_38 (bvadd ?v_45 (_ bv2 32)))) (let ((?v_39 (bvadd ?v_38 ?v_38)) (?v_37 (bvsub (_ bv4294967295 32) ((_ zero_extend 24) (ite (bvult (bvsub (_ bv4294967295 32) ?v_2) (_ bv0 32)) (_ bv1 8) (_ bv0 8))))) (?v_36 (bvadd ?v_3 (_ bv42 32))) (?v_33 (bvsub (_ bv4294967295 32) ((_ zero_extend 24) (ite (bvult (bvsub (_ bv4294967295 32) ?v_50) (_ bv0 32)) (_ bv1 8) (_ bv0 8))))) (?v_32 (bvsub (_ bv4294967295 32) ((_ zero_extend 24) (ite (bvult (bvsub (_ bv4294967295 32) ?v_31) (_ bv0 32)) (_ bv1 8) (_ bv0 8))))) (?v_28 (bvsub (_ bv4294967295 32) ((_ zero_extend 24) (ite (bvult (bvsub (_ bv4294967295 32) ?v_3) (_ bv0 32)) (_ bv1 8) (_ bv0 8))))) (?v_27 (bvadd ?v_4 (_ bv42 32)))) (let ((?v_24 (bvsub (_ bv4294967295 32) ((_ zero_extend 24) (ite (bvult (bvsub (_ bv4294967295 32) ?v_36) (_ bv0 32)) (_ bv1 8) (_ bv0 8))))) (?v_23 (bvsub (_ bv4294967295 32) ((_ zero_extend 24) (ite (bvult (bvsub (_ bv4294967295 32) ?v_22) (_ bv0 32)) (_ bv1 8) (_ bv0 8))))) (?v_19 (bvsub (_ bv4294967295 32) ((_ zero_extend 24) (ite (bvult (bvsub (_ bv4294967295 32) ?v_4) (_ bv0 32)) (_ bv1 8) (_ bv0 8))))) (?v_18 (bvadd ?v_5 (_ bv42 32))) (?v_15 (bvsub (_ bv4294967295 32) ((_ zero_extend 24) (ite (bvult (bvsub (_ bv4294967295 32) ?v_27) (_ bv0 32)) (_ bv1 8) (_ bv0 8))))) (?v_14 (bvsub (_ bv4294967295 32) ((_ zero_extend 24) (ite (bvult (bvsub (_ bv4294967295 32) ?v_13) (_ bv0 32)) (_ bv1 8) (_ bv0 8))))) (?v_11 (bvsub (_ bv4294967295 32) ((_ zero_extend 24) (ite (bvult (bvsub (_ bv4294967295 32) ?v_5) (_ bv0 32)) (_ bv1 8) (_ bv0 8)))))) (let ((?v_9 (bvsub (_ bv4294967295 32) ((_ zero_extend 24) (ite (bvult (bvsub (_ bv4294967295 32) ?v_18) (_ bv0 32)) (_ bv1 8) (_ bv0 8))))) (?v_8 (bvsub (_ bv4294967295 32) ((_ zero_extend 24) (ite (bvult (bvsub (_ bv4294967295 32) ?v_7) (_ bv0 32)) (_ bv1 8) (_ bv0 8))))) (?v_6 (bvsub (_ bv4294967295 32) ((_ zero_extend 24) (ite (bvult (bvsub (_ bv4294967295 32) ?v_10) (_ bv0 32)) (_ bv1 8) (_ bv0 8)))))) (and true (= T4_18 (bvor (bvshl (bvor (bvshl (bvor (bvshl ((_ zero_extend 24) T1_21) (_ bv8 32)) ?v_71) (_ bv8 32)) ?v_72) (_ bv8 32)) ?v_73)) (= T2_26 (bvor (bvshl ((_ zero_extend 8) T1_27) (_ bv8 16)) ((_ zero_extend 8) T1_26))) (= T2_28 (bvor (bvshl ((_ zero_extend 8) T1_29) (_ bv8 16)) ((_ zero_extend 8) T1_28))) (= T2_51 (bvor (bvshl ((_ zero_extend 8) T1_52) (_ bv8 16)) ((_ zero_extend 8) T1_51))) (= T4_958 (bvor (bvshl (bvor (bvshl (bvor (bvshl ((_ zero_extend 24) T1_961) (_ bv8 32)) ((_ zero_extend 24) T1_960)) (_ bv8 32)) ((_ zero_extend 24) T1_959)) (_ bv8 32)) ((_ zero_extend 24) T1_958))) (= T2_966 (bvor (bvshl ((_ zero_extend 8) T1_967) (_ bv8 16)) ((_ zero_extend 8) T1_966))) (= T2_968 (bvor (bvshl ((_ zero_extend 8) T1_969) (_ bv8 16)) ((_ zero_extend 8) T1_968))) (= T2_983 (bvor (bvshl ((_ zero_extend 8) T1_984) (_ bv8 16)) ((_ zero_extend 8) T1_983))) (= T4_2350 (bvor (bvshl (bvor (bvshl (bvor (bvshl ((_ zero_extend 24) T1_2353) (_ bv8 32)) ((_ zero_extend 24) T1_2352)) (_ bv8 32)) ((_ zero_extend 24) T1_2351)) (_ bv8 32)) ((_ zero_extend 24) T1_2350))) (= T2_2358 (bvor (bvshl ((_ zero_extend 8) T1_2359) (_ bv8 16)) ((_ zero_extend 8) T1_2358))) (= T4_10398 (bvor (bvshl (bvor (bvshl (bvor (bvshl ((_ zero_extend 24) T1_10401) (_ bv8 32)) ((_ zero_extend 24) T1_10400)) (_ bv8 32)) ((_ zero_extend 24) T1_10399)) (_ bv8 32)) ((_ zero_extend 24) T1_10398))) (= T2_10406 (bvor (bvshl ((_ zero_extend 8) T1_10407) (_ bv8 16)) ((_ zero_extend 8) T1_10406))) (= T2_10408 (bvor (bvshl ((_ zero_extend 8) T1_10409) (_ bv8 16)) ((_ zero_extend 8) T1_10408))) (= T2_10410 (bvor (bvshl ((_ zero_extend 8) T1_10411) (_ bv8 16)) ((_ zero_extend 8) T1_10410))) (= T4_10420 (bvor (bvshl (bvor (bvshl (bvor (bvshl ((_ zero_extend 24) T1_10423) (_ bv8 32)) ((_ zero_extend 24) T1_10422)) (_ bv8 32)) ((_ zero_extend 24) T1_10421)) (_ bv8 32)) ((_ zero_extend 24) T1_10420))) (= T4_10463 (bvor (bvshl (bvor (bvshl (bvor (bvshl ((_ zero_extend 24) T1_10466) (_ bv8 32)) ((_ zero_extend 24) T1_10465)) (_ bv8 32)) ((_ zero_extend 24) T1_10464)) (_ bv8 32)) ((_ zero_extend 24) T1_10463))) (= T2_10471 (bvor (bvshl ((_ zero_extend 8) T1_10472) (_ bv8 16)) ((_ zero_extend 8) T1_10471))) (= T2_10473 (bvor (bvshl ((_ zero_extend 8) T1_10474) (_ bv8 16)) ((_ zero_extend 8) T1_10473))) (= T2_10475 (bvor (bvshl ((_ zero_extend 8) T1_10476) (_ bv8 16)) ((_ zero_extend 8) T1_10475))) (= T4_10485 (bvor (bvshl (bvor (bvshl (bvor (bvshl ((_ zero_extend 24) T1_10488) (_ bv8 32)) ((_ zero_extend 24) T1_10487)) (_ bv8 32)) ((_ zero_extend 24) T1_10486)) (_ bv8 32)) ((_ zero_extend 24) T1_10485))) (= T2_10530 (bvor (bvshl ((_ zero_extend 8) T1_10531) (_ bv8 16)) ((_ zero_extend 8) T1_10530))) (= T2_10532 (bvor (bvshl ((_ zero_extend 8) T1_10533) (_ bv8 16)) ((_ zero_extend 8) T1_10532))) (= T4_10542 (bvor (bvshl (bvor (bvshl (bvor (bvshl ((_ zero_extend 24) T1_10545) (_ bv8 32)) ((_ zero_extend 24) T1_10544)) (_ bv8 32)) ((_ zero_extend 24) T1_10543)) (_ bv8 32)) ((_ zero_extend 24) T1_10542))) (= T4_10594 (bvor (bvshl (bvor (bvshl (bvor (bvshl ((_ zero_extend 24) T1_10597) (_ bv8 32)) ((_ zero_extend 24) T1_10596)) (_ bv8 32)) ((_ zero_extend 24) T1_10595)) (_ bv8 32)) ((_ zero_extend 24) T1_10594))) (= T2_10602 (bvor (bvshl ((_ zero_extend 8) T1_10603) (_ bv8 16)) ((_ zero_extend 8) T1_10602))) (= T2_10604 (bvor (bvshl ((_ zero_extend 8) T1_10605) (_ bv8 16)) ((_ zero_extend 8) T1_10604))) (= T2_10606 (bvor (bvshl ((_ zero_extend 8) T1_10607) (_ bv8 16)) ((_ zero_extend 8) T1_10606))) (= T4_10616 (bvor (bvshl (bvor (bvshl (bvor (bvshl ((_ zero_extend 24) T1_10619) (_ bv8 32)) ((_ zero_extend 24) T1_10618)) (_ bv8 32)) ((_ zero_extend 24) T1_10617)) (_ bv8 32)) ((_ zero_extend 24) T1_10616))) (= T2_10667 (bvor (bvshl ((_ zero_extend 8) T1_10668) (_ bv8 16)) ((_ zero_extend 8) T1_10667))) (= T2_10669 (bvor (bvshl ((_ zero_extend 8) T1_10670) (_ bv8 16)) ((_ zero_extend 8) T1_10669))) (= T4_10679 (bvor (bvshl (bvor (bvshl (bvor (bvshl ((_ zero_extend 24) T1_10682) (_ bv8 32)) ((_ zero_extend 24) T1_10681)) (_ bv8 32)) ((_ zero_extend 24) T1_10680)) (_ bv8 32)) ((_ zero_extend 24) T1_10679))) (= T2_10734 (bvor (bvshl ((_ zero_extend 8) T1_10735) (_ bv8 16)) ((_ zero_extend 8) T1_10734))) (= T2_10736 (bvor (bvshl ((_ zero_extend 8) T1_10737) (_ bv8 16)) ((_ zero_extend 8) T1_10736))) (= T4_10746 (bvor (bvshl (bvor (bvshl (bvor (bvshl ((_ zero_extend 24) T1_10749) (_ bv8 32)) ((_ zero_extend 24) T1_10748)) (_ bv8 32)) ((_ zero_extend 24) T1_10747)) (_ bv8 32)) ((_ zero_extend 24) T1_10746))) (= T2_10802 (bvor (bvshl ((_ zero_extend 8) T1_10803) (_ bv8 16)) ((_ zero_extend 8) T1_10802))) (= T2_10804 (bvor (bvshl ((_ zero_extend 8) T1_10805) (_ bv8 16)) ((_ zero_extend 8) T1_10804))) (= T4_10814 (bvor (bvshl (bvor (bvshl (bvor (bvshl ((_ zero_extend 24) T1_10817) (_ bv8 32)) ((_ zero_extend 24) T1_10816)) (_ bv8 32)) ((_ zero_extend 24) T1_10815)) (_ bv8 32)) ((_ zero_extend 24) T1_10814))) (= T2_10865 (bvor (bvshl ((_ zero_extend 8) T1_10866) (_ bv8 16)) ((_ zero_extend 8) T1_10865))) (= T2_10867 (bvor (bvshl ((_ zero_extend 8) T1_10868) (_ bv8 16)) ((_ zero_extend 8) T1_10867))) (= T4_10877 (bvor (bvshl (bvor (bvshl (bvor (bvshl ((_ zero_extend 24) T1_10880) (_ bv8 32)) ((_ zero_extend 24) T1_10879)) (_ bv8 32)) ((_ zero_extend 24) T1_10878)) (_ bv8 32)) ((_ zero_extend 24) T1_10877))) (= T2_10929 (bvor (bvshl ((_ zero_extend 8) T1_10930) (_ bv8 16)) ((_ zero_extend 8) T1_10929))) (= T2_10931 (bvor (bvshl ((_ zero_extend 8) T1_10932) (_ bv8 16)) ((_ zero_extend 8) T1_10931))) (= T4_10941 (bvor (bvshl (bvor (bvshl (bvor (bvshl ((_ zero_extend 24) T1_10944) (_ bv8 32)) ((_ zero_extend 24) T1_10943)) (_ bv8 32)) ((_ zero_extend 24) T1_10942)) (_ bv8 32)) ((_ zero_extend 24) T1_10941))) (= T2_10995 (bvor (bvshl ((_ zero_extend 8) T1_10996) (_ bv8 16)) ((_ zero_extend 8) T1_10995))) (= T2_10997 (bvor (bvshl ((_ zero_extend 8) T1_10998) (_ bv8 16)) ((_ zero_extend 8) T1_10997))) (= T4_11007 (bvor (bvshl (bvor (bvshl (bvor (bvshl ((_ zero_extend 24) T1_11010) (_ bv8 32)) ((_ zero_extend 24) T1_11009)) (_ bv8 32)) ((_ zero_extend 24) T1_11008)) (_ bv8 32)) ((_ zero_extend 24) T1_11007))) (= T2_11058 (bvor (bvshl ((_ zero_extend 8) T1_11059) (_ bv8 16)) ((_ zero_extend 8) T1_11058))) (= T2_11060 (bvor (bvshl ((_ zero_extend 8) T1_11061) (_ bv8 16)) ((_ zero_extend 8) T1_11060))) (= T4_11070 (bvor (bvshl (bvor (bvshl (bvor (bvshl ((_ zero_extend 24) T1_11073) (_ bv8 32)) ((_ zero_extend 24) T1_11072)) (_ bv8 32)) ((_ zero_extend 24) T1_11071)) (_ bv8 32)) ((_ zero_extend 24) T1_11070))) (= T2_11119 (bvor (bvshl ((_ zero_extend 8) T1_11120) (_ bv8 16)) ((_ zero_extend 8) T1_11119))) (= T2_11121 (bvor (bvshl ((_ zero_extend 8) T1_11122) (_ bv8 16)) ((_ zero_extend 8) T1_11121))) (= T4_11131 (bvor (bvshl (bvor (bvshl (bvor (bvshl ((_ zero_extend 24) T1_11134) (_ bv8 32)) ((_ zero_extend 24) T1_11133)) (_ bv8 32)) ((_ zero_extend 24) T1_11132)) (_ bv8 32)) ((_ zero_extend 24) T1_11131))) (= T4_11163 (bvor (bvshl (bvor (bvshl (bvor (bvshl ((_ zero_extend 24) T1_11166) (_ bv8 32)) ((_ zero_extend 24) T1_11165)) (_ bv8 32)) ((_ zero_extend 24) T1_11164)) (_ bv8 32)) ((_ zero_extend 24) T1_11163))) (= T4_11167 (bvor (bvshl (bvor (bvshl (bvor (bvshl ((_ zero_extend 24) T1_11170) (_ bv8 32)) ((_ zero_extend 24) T1_11169)) (_ bv8 32)) ((_ zero_extend 24) T1_11168)) (_ bv8 32)) ((_ zero_extend 24) T1_11167))) (bvslt T4_10594 (_ bv0 32)) (bvult (_ bv0 32) ?v_6) (bvule (_ bv0 32) ?v_6) (= ?v_16 (_ bv0 32)) (bvult (_ bv0 32) ?v_8) (bvule (_ bv0 32) ?v_8) (bvult (_ bv0 32) ?v_9) (bvule (_ bv0 32) ?v_9) (not (= (bvadd ?v_10 (_ bv42 32)) (_ bv4294967295 32))) (bvult (_ bv0 32) ?v_11) (bvule (_ bv0 32) ?v_11) (= ?v_25 (_ bv0 32)) (not (= ?v_10 (_ bv4294967295 32))) (bvule (_ bv0 32) ?v_10) (= ?v_12 (_ bv0 32)) (bvult (_ bv0 32) ?v_14) (bvule (_ bv0 32) ?v_14) (bvult (_ bv0 32) ?v_15) (bvule (_ bv0 32) ?v_15) (not (= (bvadd ?v_20 (_ bv42 32)) (_ bv4294967295 32))) (not (= ?v_17 (_ bv4294967295 32))) (bvule (_ bv0 32) ?v_17) (not (= ?v_7 (_ bv4294967295 32))) (bvule (_ bv0 32) ?v_7) (not (= ?v_18 (_ bv4294967295 32))) (bvult (_ bv0 32) ?v_19) (bvule (_ bv0 32) ?v_19) (= ?v_34 (_ bv0 32)) (not (= ?v_20 (_ bv4294967295 32))) (bvule (_ bv0 32) ?v_20) (not (= ?v_5 (_ bv4294967295 32))) (bvule (_ bv0 32) ?v_5) (= ?v_21 (_ bv0 32)) (bvult (_ bv0 32) ?v_23) (bvule (_ bv0 32) ?v_23) (bvult (_ bv0 32) ?v_24) (bvule (_ bv0 32) ?v_24) (not (= (bvadd ?v_29 (_ bv42 32)) (_ bv4294967295 32))) (not (= ?v_26 (_ bv4294967295 32))) (bvule (_ bv0 32) ?v_26) (not (= ?v_13 (_ bv4294967295 32))) (bvule (_ bv0 32) ?v_13) (not (= ?v_27 (_ bv4294967295 32))) (bvult (_ bv0 32) ?v_28) (bvule (_ bv0 32) ?v_28) (= ?v_48 (_ bv0 32)) (not (= ?v_29 (_ bv4294967295 32))) (bvule (_ bv0 32) ?v_29) (not (= ?v_4 (_ bv4294967295 32))) (bvule (_ bv0 32) ?v_4) (= ?v_30 (_ bv0 32)) (bvult (_ bv0 32) ?v_32) (bvule (_ bv0 32) ?v_32) (bvult (_ bv0 32) ?v_33) (bvule (_ bv0 32) ?v_33) (not (= (bvadd ?v_40 (_ bv42 32)) (_ bv4294967295 32))) (not (= ?v_35 (_ bv4294967295 32))) (bvule (_ bv0 32) ?v_35) (not (= ?v_22 (_ bv4294967295 32))) (bvule (_ bv0 32) ?v_22) (not (= ?v_36 (_ bv4294967295 32))) (bvult (_ bv0 32) ?v_37) (bvule (_ bv0 32) ?v_37) (bvslt ?v_39 (_ bv1024 32)) (bvsle ?v_39 (_ bv32768 32)) (bvslt (_ bv0 32) ?v_39) (not (= ?v_39 (_ bv0 32))) (bvule ?v_39 (_ bv2147483647 32)) (= ?v_65 (_ bv0 32)) (not (= ?v_40 (_ bv4294967295 32))) (bvule (_ bv0 32) ?v_40) (not (= ?v_3 (_ bv4294967295 32))) (bvule (_ bv0 32) ?v_3) (= ?v_41 (_ bv0 32)) (bvult (_ bv0 32) ?v_43) (bvule (_ bv0 32) ?v_43) (bvult (_ bv0 32) ?v_44) (bvule (_ bv0 32) ?v_44) (bvule (_ bv4 16) T2_983) (bvule (bvadd ?v_45 (_ bv31 32)) (_ bv2114 32)) (not (= (bvsub ?v_45 (_ bv4 32)) (_ bv0 32))) (not (= ?v_46 (_ bv0 32))) (bvsle (_ bv0 32) ?v_46) (bvslt ?v_47 (_ bv1024 32)) (bvsle ?v_47 (_ bv32768 32)) (bvslt (_ bv0 32) ?v_47) (bvsle (_ bv0 32) ?v_47) (not (= ?v_47 (_ bv0 32))) (bvule ?v_47 (_ bv2147483647 32)) (not (= (bvadd ?v_52 (_ bv42 32)) (_ bv4294967295 32))) (not (= ?v_49 (_ bv4294967295 32))) (not (= ?v_31 (_ bv4294967295 32))) (bvule (_ bv0 32) ?v_31) (not (= ?v_50 (_ bv4294967295 32))) (bvult (_ bv0 32) ?v_51) (bvule (_ bv0 32) ?v_51) (bvule (bvsub (_ bv0 32) ((_ zero_extend 24) (ite (bvult T4_10463 (_ bv0 32)) (_ bv1 8) (_ bv0 8)))) (_ bv0 32)) (= ((_ zero_extend 16) T2_966) ?v_45) (not (= ?v_45 (_ bv0 32))) (bvule ?v_45 (_ bv11 32)) (bvult (_ bv10 32) ?v_45) (bvule ?v_45 (_ bv2147483645 32)) (= (_ bv11 32) ?v_45) (bvult (_ bv0 32) ?v_45) (bvult (_ bv0 16) T2_10471) (= ?v_78 (_ bv0 32)) (not (= ?v_52 (_ bv4294967295 32))) (not (= ?v_2 (_ bv4294967295 32))) (bvule (_ bv0 32) ?v_2) (= ?v_53 (_ bv0 32)) (bvult (_ bv0 32) ?v_55) (bvule (_ bv0 32) ?v_55) (bvult (_ bv0 32) ?v_56) (bvule (_ bv0 32) ?v_56) (bvule (bvsub (_ bv0 32) ((_ zero_extend 24) (ite (bvult T4_10398 (_ bv0 32)) (_ bv1 8) (_ bv0 8)))) (_ bv0 32)) (bvule (_ bv4 16) T2_51) (bvslt ?v_58 (_ bv1024 32)) (bvsle ?v_58 (_ bv32768 32)) (bvslt (_ bv0 32) ?v_58) (not (= ?v_58 (_ bv0 32))) (bvule ?v_58 (_ bv2147483647 32)) (not (= (bvsub T4_10463 ?v_60) (_ bv0 32))) (not (= ?v_59 (_ bv0 32))) (bvult ?v_59 (_ bv6 32)) (not (= (bvsub T4_10463 (_ bv257 32)) (_ bv0 32))) (not (= (bvsub T4_10463 (_ bv256 32)) (_ bv0 32))) (bvule (_ bv6 32) (bvsub T4_10463 (_ bv252 32))) (not (= (bvsub T4_10463 (_ bv250 32)) (_ bv0 32))) (not (= (bvsub T4_10463 (_ bv249 32)) (_ bv0 32))) (not (= (bvsub T4_10463 (_ bv235 32)) (_ bv0 32))) (bvult (_ bv148799696 32) (bvadd T4_10463 (_ bv148799482 32))) (not (= (bvsub T4_10463 (_ bv50 32)) (_ bv0 32))) (not (= (bvsub T4_10463 (_ bv49 32)) (_ bv0 32))) (not (= (bvsub T4_10463 (_ bv21 32)) (_ bv0 32))) (not (= (bvsub T4_10463 (_ bv11 32)) (_ bv0 32))) (not (= (bvsub T4_10463 (_ bv8 32)) (_ bv0 32))) (not (= (bvsub T4_10463 (_ bv2 32)) (_ bv0 32))) (= ?v_60 (_ bv0 32)) (not (= T4_958 (_ bv4294967295 32))) (= ?v_62 ?v_61) (bvule ?v_61 ?v_62) (bvule ?v_62 ?v_61) ?v_63 (= ?v_61 (_ bv520 32)) (bvult (_ bv0 32) ?v_61) (bvslt (_ bv0 32) ?v_61) (bvsle (_ bv0 32) ?v_61) (bvult (_ bv512 32) ?v_61) ?v_63 (not (= ?v_61 (_ bv0 32))) (= ?v_64 (_ bv41 32)) (bvult (_ bv0 32) ?v_64) (not (= (bvadd ?v_77 (_ bv42 32)) (_ bv4294967295 32))) (not (= ?v_66 (_ bv4294967295 32))) (not (= ?v_42 (_ bv4294967295 32))) (bvule (_ bv0 32) ?v_42) (not (= ?v_67 (_ bv4294967295 32))) (bvult (_ bv0 32) ?v_68) (bvule (_ bv0 32) ?v_68) (not (= (bvsub T4_10398 ?v_70) (_ bv0 32))) (not (= ?v_69 (_ bv0 32))) (bvult ?v_69 (_ bv6 32)) (not (= (bvsub T4_10398 (_ bv369 32)) (_ bv0 32))) (not (= (bvsub T4_10398 (_ bv368 32)) (_ bv0 32))) (bvule (_ bv6 32) (bvsub T4_10398 (_ bv364 32))) (not (= (bvsub T4_10398 (_ bv362 32)) (_ bv0 32))) (not (= (bvsub T4_10398 (_ bv361 32)) (_ bv0 32))) (not (= (bvsub T4_10398 (_ bv351 32)) (_ bv0 32))) (bvult (_ bv148799825 32) (bvadd T4_10398 (_ bv148799482 32))) (not (= (bvsub T4_10398 (_ bv51 32)) (_ bv0 32))) (not (= (bvsub T4_10398 (_ bv36 32)) (_ bv0 32))) (not (= (bvsub T4_10398 (_ bv23 32)) (_ bv0 32))) (not (= (bvsub T4_10398 (_ bv22 32)) (_ bv0 32))) (not (= (bvsub T4_10398 (_ bv7 32)) (_ bv0 32))) (not (= (bvsub T4_10398 (_ bv2 32)) (_ bv0 32))) (= ?v_70 (_ bv0 32)) (not (= ?v_71 (_ bv10 32))) (not (= ?v_72 (_ bv10 32))) (not (= ?v_72 (_ bv13 32))) (not (= ?v_73 (_ bv10 32))) (not (= ?v_73 (_ bv13 32))) (not (= T4_18 (_ bv4294967295 32))) (bvule (bvadd ?v_74 (_ bv31 32)) (_ bv2114 32)) (bvslt ?v_76 (_ bv1024 32)) (bvsle ?v_76 (_ bv32768 32)) (bvslt (_ bv0 32) ?v_76) (bvsle (_ bv0 32) ?v_76) (not (= ?v_76 (_ bv0 32))) (bvule ?v_76 (_ bv2147483647 32)) (= (_ bv0 32) (bvsub (_ bv0 32) ((_ zero_extend 24) (ite (bvult ?v_88 (_ bv0 32)) (_ bv1 8) (_ bv0 8))))) (not (= T4_10463 (_ bv0 32))) (= T4_10463 (_ bv259 32)) (bvult (_ bv0 32) T4_10463) (bvule T4_10463 (_ bv32768 32)) (= T4_958 T4_10463) (= (_ bv0 32) (bvsub (_ bv0 32) ((_ zero_extend 24) (ite (bvult ?v_89 (_ bv0 32)) (_ bv1 8) (_ bv0 8))))) (not (= ?v_77 (_ bv4294967295 32))) (= (_ bv0 32) (bvsub (_ bv0 32) ((_ zero_extend 24) (ite (bvult ?v_91 (_ bv0 32)) (_ bv1 8) (_ bv0 8))))) (not (= ?v_1 (_ bv4294967295 32))) (bvule (_ bv0 32) ?v_1) (= ?v_79 (_ bv0 32)) (bvult (_ bv0 32) ?v_80) (bvule (_ bv0 32) ?v_80) (= T4_10398 (_ bv371 32)) (bvult T4_10398 (_ bv65536 32)) (not (= T4_10398 (_ bv0 32))) (bvult (_ bv0 32) T4_10398) (bvule T4_10398 (_ bv32768 32)) (= T4_18 T4_10398) (= ?v_82 ?v_81) (bvule ?v_81 ?v_82) (bvule ?v_82 ?v_81) ?v_83 (= ?v_81 (_ bv520 32)) (bvult (_ bv0 32) ?v_81) (bvslt (_ bv0 32) ?v_81) (bvsle (_ bv0 32) ?v_81) (bvult (_ bv512 32) ?v_81) ?v_83 (not (= ?v_81 (_ bv0 32))) (= ((_ zero_extend 16) T2_26) ?v_74) (bvule ?v_74 (_ bv19 32)) (bvult (_ bv18 32) ?v_74) (bvule ?v_74 (_ bv2147483645 32)) (= (_ bv19 32) ?v_74) (bvult (_ bv0 32) ?v_74) (bvult (_ bv0 16) T2_10406) (not (= ?v_84 (_ bv4294967295 32))) (not (= T4_11163 (_ bv4294967295 32))) (not (= ?v_54 (_ bv4294967295 32))) (bvule (_ bv0 32) ?v_54) (not (= ?v_85 (_ bv4294967295 32))) (not (= (bvadd ?v_87 T4_10420) (_ bv4294967295 32))) (= ?v_86 (_ bv49 32)) (bvult (_ bv0 32) ?v_86) (not (= (bvadd ?v_86 T4_10420) (_ bv4294967295 32))) (= (bvadd ?v_87 T4_10398) ?v_88) (not (= (bvadd (bvshl (bvsub ?v_92 (_ bv12 32)) ?v_75) (_ bv141881640 32)) (_ bv0 32))) (= (bvadd (bvadd ?v_64 ?v_61) T4_10463) ?v_89) (= (_ bv11151 32) ?v_90) (= T4_11163 ?v_91) (not (= ?v_0 (_ bv4294967295 32))) (bvule (_ bv0 32) ?v_0) (bvule T4_10814 T4_10877) (bvule T4_10877 T4_10941) (bvult T4_10877 T4_10941) (bvult T4_10814 T4_10941) (not (= T4_10814 T4_10941)) (bvult T4_10941 T4_11007) (bvule T4_11007 T4_11070) (bvult T4_10941 T4_11070) (not (= T4_10485 (_ bv4294967295 32))) (bvule T4_11070 T4_11131) (bvule T4_10941 T4_11131) (bvult T4_10941 T4_11131) (bvult T4_10814 T4_11131) (not (= T4_10814 T4_11131)) (not (= T4_10420 (_ bv4294967295 32))) (= T4_10420 (_ bv0 32)) (bvult T4_10420 T4_10485) (bvule T4_10420 T4_10485) (not (= T4_10485 T4_10420)) (bvult T4_10420 T4_11131) (not (= T4_10420 T4_11131)) (bvslt ?v_94 (_ bv1024 32)) (bvsle ?v_94 (_ bv32768 32)) (bvslt (_ bv0 32) ?v_94) (not (= ?v_94 (_ bv0 32))) (bvule ?v_94 (_ bv2147483647 32)) (= (_ bv0 32) (bvsub (_ bv0 32) ((_ zero_extend 24) (ite (bvult ?v_98 (_ bv0 32)) (_ bv1 8) (_ bv0 8))))) (bvult T4_10485 T4_10542) (bvule T4_10485 T4_10542) (not (= T4_10542 T4_10485)) (bvult T4_11131 T4_11167) (bvult T4_11070 T4_11167) (bvult T4_11007 T4_11167) (bvult T4_10941 T4_11167) (bvult T4_10877 T4_11167) (bvult T4_10814 T4_11167) (bvult T4_10542 T4_11167) (bvult T4_10485 T4_11167) (bvult T4_10420 T4_11167) (bvule (_ bv0 32) T4_11167) (not (= T4_11167 (_ bv11151 32))) (bvule T4_11167 (_ bv11151 32)) (not (= T4_11167 (_ bv4294967295 32))) (bvult T4_10746 T4_11167) (bvult T4_10746 T4_10814) (not (= T4_10746 T4_10814)) (bvult T4_10746 T4_10877) (not (= T4_10746 T4_10877)) (bvult T4_10746 T4_10941) (not (= T4_10746 T4_10941)) (bvult T4_10746 T4_11007) (not (= T4_10746 T4_11007)) (bvult T4_10746 T4_11070) (not (= T4_10746 T4_11070)) (bvule T4_10746 T4_11131) (not (= T4_11131 T4_10746)) (bvult T4_10542 T4_10746) (not (= T4_10542 T4_10746)) (bvult T4_10485 T4_10746) (not (= T4_10485 T4_10746)) (bvult T4_10746 T4_11131) (not (= T4_10746 T4_11131)) (bvult T4_10420 T4_10746) (not (= T4_10420 T4_10746)) (bvule (bvadd ?v_92 (_ bv31 32)) (_ bv2114 32)) (not (= (bvsub ?v_92 (_ bv11 32)) (_ bv0 32))) (not (= ?v_95 (_ bv0 32))) (bvsle (_ bv0 32) ?v_95) (bvslt ?v_96 (_ bv1024 32)) (bvsle ?v_96 (_ bv32768 32)) (bvslt (_ bv0 32) ?v_96) (bvsle (_ bv0 32) ?v_96) (not (= ?v_96 (_ bv0 32))) (bvule ?v_96 (_ bv2147483647 32)) (bvult T4_10616 T4_11167) (bvule T4_10542 T4_10616) (not (= T4_10616 T4_10542)) (bvult T4_10616 T4_10746) (not (= T4_10616 T4_10746)) (bvult T4_10679 T4_11167) (bvule T4_10616 T4_10679) (not (= T4_10679 T4_10616)) (bvule T4_10679 T4_10746) (not (= T4_10746 T4_10679)) (bvult T4_10679 T4_10746) (not (= T4_10679 T4_10746)) (= ((_ zero_extend 16) T2_2358) ?v_92) (not (= ?v_92 (_ bv0 32))) (bvule ?v_92 (_ bv17 32)) (bvult (_ bv16 32) ?v_92) (bvule ?v_92 (_ bv2147483645 32)) (= (_ bv17 32) ?v_92) (bvult (_ bv0 32) ?v_92) (bvult (_ bv0 16) T2_10602) (= ?v_97 (_ bv47 32)) (bvult (_ bv0 32) ?v_97) (= (bvadd ?v_97 T4_10594) ?v_98) (not (= T4_2350 (_ bv4294967295 32))) (= T4_2350 T4_10594)))))))))))))))))))))))))))))))))))))))
(check-sat)
(exit)
